; benchmark generated from python API
(set-info :status unknown)
(declare-fun DISJ_W_S1_R_S1 () Bool)
(declare-fun W_S1_V2 () Bool)
(declare-fun W_S1_V6 () Bool)
(declare-fun W_S1_V4 () Bool)
(declare-fun W_S1_V3 () Bool)
(declare-fun W_S1_V1 () Bool)
(declare-fun R_S1_V6 () Bool)
(declare-fun R_S1_V4 () Bool)
(declare-fun R_S1_V5 () Bool)
(declare-fun R_S1_V2 () Bool)
(declare-fun R_S1_V3 () Bool)
(declare-fun R_S1_V1 () Bool)
(declare-fun R_E2_V1 () Bool)
(declare-fun R_E1_V6 () Bool)
(declare-fun R_E1_V4 () Bool)
(declare-fun R_E1_V5 () Bool)
(declare-fun R_E1_V2 () Bool)
(declare-fun DISJ_W_S1_R_E1 () Bool)
(declare-fun R_E2_V6 () Bool)
(declare-fun R_E2_V4 () Bool)
(declare-fun R_E2_V5 () Bool)
(declare-fun R_E2_V2 () Bool)
(declare-fun DISJ_W_S1_R_E2 () Bool)
(declare-fun W_S1_V5 () Bool)
(declare-fun R_E1_V3 () Bool)
(declare-fun R_E1_V1 () Bool)
(declare-fun R_E2_V3 () Bool)
(assert
 (let (($x3140 (not (and (not W_S1_V2) DISJ_W_S1_R_S1))))
 (let (($x5388 (forall ((V2_0 Int) )(forall ((V5_0 Int) )(forall ((V4_0 Int) )(forall ((V6_0 Int) )(forall ((MW_S1_V1 Bool) )(forall ((MW_S1_V3 Bool) )(forall ((MW_S1_V2 Bool) )(forall ((MW_S1_V5 Bool) )(forall ((MW_S1_V4 Bool) )(forall ((MW_S1_V6 Bool) )(forall ((S1_V1_!5249 Int) )(forall ((S1_V1_!5255 Int) )(forall ((S1_V1_!5264 Int) )(forall ((S1_V1_!5270 Int) )(forall ((S1_V3_!5250 Int) )(forall ((S1_V3_!5256 Int) )(forall ((S1_V3_!5265 Int) )(forall ((S1_V3_!5271 Int) )(forall ((S1_V2_!5251 Int) )(forall ((S1_V2_!5257 Int) )(forall ((S1_V2_!5266 Int) )(forall ((S1_V2_!5272 Int) )(forall ((E1_!5246 Int) )(forall ((E1_!5261 Int) )(forall ((E1_!5263 Int) )(forall ((S1_V5_!5252 Int) )(forall ((S1_V5_!5258 Int) )(forall ((S1_V5_!5267 Int) )(forall ((S1_V5_!5273 Int) )(forall ((E2_!5247 Int) )(forall ((E2_!5248 Int) )(forall ((E2_!5262 Int) )(forall ((S1_V4_!5253 Int) )(forall ((S1_V4_!5259 Int) )(forall ((S1_V4_!5268 Int) )(forall ((S1_V4_!5274 Int) )(forall ((S1_V6_!5254 Int) )(forall ((S1_V6_!5260 Int) )(forall ((S1_V6_!5269 Int) )(forall ((S1_V6_!5275 Int) )(let ((?x3528 (ite MW_S1_V3 S1_V3_!5271 E2_!5262)))
 (let ((?x2768 (ite MW_S1_V3 S1_V3_!5250 E2_!5248)))
 (let ((?x3581 (+ 1 ?x2768)))
 (let ((?x2424 (ite MW_S1_V3 S1_V3_!5256 ?x3581)))
 (let ((?x547 (ite MW_S1_V1 S1_V1_!5264 E1_!5263)))
 (let ((?x1225 (+ 1 ?x547)))
 (let ((?x4438 (ite MW_S1_V1 S1_V1_!5270 ?x1225)))
 (let ((?x5617 (ite MW_S1_V1 S1_V1_!5255 E1_!5246)))
 (let (($x2838 (and (= ?x5617 ?x4438) (= ?x2424 ?x3528) (= (ite MW_S1_V2 S1_V2_!5257 V2_0) (ite MW_S1_V2 S1_V2_!5272 V2_0)) (= (ite MW_S1_V5 S1_V5_!5258 V5_0) (ite MW_S1_V5 S1_V5_!5273 V5_0)) (= (ite MW_S1_V4 S1_V4_!5259 V4_0) (ite MW_S1_V4 S1_V4_!5274 V4_0)) (= (ite MW_S1_V6 S1_V6_!5260 V6_0) (ite MW_S1_V6 S1_V6_!5275 V6_0)))))
 (let (($x864 (and (not (<= V4_0 E2_!5247)) (not (<= V2_0 E1_!5246)) (not (<= V4_0 E2_!5248)) (not (<= (ite MW_S1_V4 S1_V4_!5253 V4_0) ?x3581)) (>= ?x2424 (+ (- 1) (ite MW_S1_V4 S1_V4_!5259 V4_0))) (>= ?x5617 (+ (- 1) (ite MW_S1_V2 S1_V2_!5257 V2_0))) (not (<= V2_0 E1_!5261)) (not (<= V4_0 E2_!5262)) (not (<= V2_0 E1_!5263)) (not (<= (ite MW_S1_V2 S1_V2_!5266 V2_0) ?x1225)) (>= ?x4438 (+ (- 1) (ite MW_S1_V2 S1_V2_!5272 V2_0))) (>= ?x3528 (+ (- 1) (ite MW_S1_V4 S1_V4_!5274 V4_0))))))
 (let (($x1500 (= S1_V6_!5269 S1_V6_!5275)))
 (let (($x3569 (not R_S1_V6)))
 (let (($x5462 (or $x3569 (= V6_0 (ite MW_S1_V6 S1_V6_!5269 V6_0)))))
 (let (($x5363 (not R_S1_V4)))
 (let (($x2310 (or $x5363 (= V4_0 (ite MW_S1_V4 S1_V4_!5268 V4_0)))))
 (let (($x1344 (not R_S1_V5)))
 (let (($x2001 (or $x1344 (= V5_0 (ite MW_S1_V5 S1_V5_!5267 V5_0)))))
 (let (($x3728 (not R_S1_V2)))
 (let (($x5976 (or $x3728 (= V2_0 (ite MW_S1_V2 S1_V2_!5266 V2_0)))))
 (let (($x1840 (and (or (not R_S1_V1) (= E1_!5263 ?x1225)) (or (not R_S1_V3) (= E2_!5262 (ite MW_S1_V3 S1_V3_!5265 E2_!5262))) $x5976 $x2001 $x2310 $x5462)))
 (let (($x3631 (not $x1840)))
 (let (($x570 (= S1_V6_!5260 S1_V6_!5275)))
 (let (($x1267 (and (or (not R_S1_V1) (= (ite MW_S1_V1 S1_V1_!5249 E1_!5246) ?x1225)) (or (not R_S1_V3) (= ?x2768 (+ (- 1) (ite MW_S1_V3 S1_V3_!5265 E2_!5262)))) (or $x3728 (= (ite MW_S1_V2 S1_V2_!5251 V2_0) (ite MW_S1_V2 S1_V2_!5266 V2_0))) (or $x1344 (= (ite MW_S1_V5 S1_V5_!5252 V5_0) (ite MW_S1_V5 S1_V5_!5267 V5_0))) (or $x5363 (= (ite MW_S1_V4 S1_V4_!5253 V4_0) (ite MW_S1_V4 S1_V4_!5268 V4_0))) (or $x3569 (= (ite MW_S1_V6 S1_V6_!5254 V6_0) (ite MW_S1_V6 S1_V6_!5269 V6_0))))))
 (let (($x2731 (not $x1267)))
 (let (($x315 (= S1_V6_!5260 S1_V6_!5269)))
 (let (($x3955 (or $x3569 (= (ite MW_S1_V6 S1_V6_!5254 V6_0) V6_0))))
 (let (($x3012 (or $x5363 (= (ite MW_S1_V4 S1_V4_!5253 V4_0) V4_0))))
 (let (($x4221 (or $x1344 (= (ite MW_S1_V5 S1_V5_!5252 V5_0) V5_0))))
 (let (($x959 (or $x3728 (= (ite MW_S1_V2 S1_V2_!5251 V2_0) V2_0))))
 (let (($x2772 (and (or (not R_S1_V1) (= (ite MW_S1_V1 S1_V1_!5249 E1_!5246) E1_!5263)) (or (not R_S1_V3) (= ?x2768 (+ (- 1) E2_!5262))) $x959 $x4221 $x3012 $x3955)))
 (let (($x2271 (not $x2772)))
 (let (($x4165 (and (or (not R_S1_V1) (= (ite MW_S1_V1 S1_V1_!5249 E1_!5246) E1_!5246)) (or (not R_S1_V3) (= ?x2768 (+ (- 1) E2_!5248))) $x959 $x4221 $x3012 $x3955)))
 (let (($x1079 (not $x4165)))
 (let (($x828 (and (or (not R_S1_V1) (= E1_!5246 ?x1225)) (or (not R_S1_V3) (= E2_!5248 (ite MW_S1_V3 S1_V3_!5265 E2_!5262))) $x5976 $x2001 $x2310 $x5462)))
 (let (($x847 (not $x828)))
 (let (($x228 (and (or (not R_S1_V1) (= E1_!5246 E1_!5263)) (or (not R_S1_V3) (= E2_!5248 E2_!5262)))))
 (let (($x1634 (not $x228)))
 (let (($x3444 (= S1_V4_!5274 S1_V4_!5268)))
 (let (($x1888 (or $x3569 (= (ite MW_S1_V6 S1_V6_!5269 V6_0) V6_0))))
 (let (($x301 (or $x5363 (= (ite MW_S1_V4 S1_V4_!5268 V4_0) V4_0))))
 (let (($x3111 (or $x1344 (= (ite MW_S1_V5 S1_V5_!5267 V5_0) V5_0))))
 (let (($x487 (or $x3728 (= (ite MW_S1_V2 S1_V2_!5266 V2_0) V2_0))))
 (let (($x2636 (and (or (not R_S1_V1) (= ?x547 (+ (- 1) E1_!5263))) (or (not R_S1_V3) (= (ite MW_S1_V3 S1_V3_!5265 E2_!5262) E2_!5262)) $x487 $x3111 $x301 $x1888)))
 (let (($x5208 (not $x2636)))
 (let (($x2759 (and (or (not R_S1_V1) (= ?x547 (+ (- 1) (ite MW_S1_V1 S1_V1_!5249 E1_!5246)))) (or (not R_S1_V3) (= (ite MW_S1_V3 S1_V3_!5265 E2_!5262) ?x3581)) (or $x3728 (= (ite MW_S1_V2 S1_V2_!5266 V2_0) (ite MW_S1_V2 S1_V2_!5251 V2_0))) (or $x1344 (= (ite MW_S1_V5 S1_V5_!5267 V5_0) (ite MW_S1_V5 S1_V5_!5252 V5_0))) (or $x5363 (= (ite MW_S1_V4 S1_V4_!5268 V4_0) (ite MW_S1_V4 S1_V4_!5253 V4_0))) (or $x3569 (= (ite MW_S1_V6 S1_V6_!5269 V6_0) (ite MW_S1_V6 S1_V6_!5254 V6_0))))))
 (let (($x1838 (not $x2759)))
 (let (($x2068 (and (or (not R_S1_V1) (= ?x547 (+ (- 1) E1_!5246))) (or (not R_S1_V3) (= (ite MW_S1_V3 S1_V3_!5265 E2_!5262) E2_!5248)) $x487 $x3111 $x301 $x1888)))
 (let (($x4882 (not $x2068)))
 (let (($x4686 (and (or (not R_S1_V1) (= E1_!5246 (ite MW_S1_V1 S1_V1_!5249 E1_!5246))) (or (not R_S1_V3) (= E2_!5248 ?x3581)) (or $x3728 (= V2_0 (ite MW_S1_V2 S1_V2_!5251 V2_0))) (or $x1344 (= V5_0 (ite MW_S1_V5 S1_V5_!5252 V5_0))) (or $x5363 (= V4_0 (ite MW_S1_V4 S1_V4_!5253 V4_0))) (or $x3569 (= V6_0 (ite MW_S1_V6 S1_V6_!5254 V6_0))))))
 (let (($x3483 (not $x4686)))
 (let (($x2208 (and (or (not R_S1_V1) (= E1_!5263 E1_!5246)) (or (not R_S1_V3) (= E2_!5262 E2_!5248)))))
 (let (($x5871 (= E1_!5263 E1_!5261)))
 (let (($x1237 (= E1_!5263 E1_!5246)))
 (let (($x3777 (= E1_!5246 E1_!5261)))
 (let (($x680 (and (or $x3483 (= S1_V1_!5249 S1_V1_!5255)) (or $x1634 (= S1_V1_!5249 S1_V1_!5264)) (or $x847 (= S1_V1_!5249 S1_V1_!5270)) (or $x2271 (= S1_V1_!5255 S1_V1_!5264)) (or $x1838 (= S1_V1_!5270 S1_V1_!5255)) (or $x5208 (= S1_V1_!5270 S1_V1_!5264)) (or $x3483 (= S1_V3_!5250 S1_V3_!5256)) (or $x1634 (= S1_V3_!5250 S1_V3_!5265)) (or $x847 (= S1_V3_!5250 S1_V3_!5271)) (or $x2271 (= S1_V3_!5256 S1_V3_!5265)) (or $x2731 (= S1_V3_!5256 S1_V3_!5271)) (or $x3631 (= S1_V3_!5265 S1_V3_!5271)) (or $x1634 (= S1_V2_!5251 S1_V2_!5266)) (or $x847 (= S1_V2_!5251 S1_V2_!5272)) (or $x1079 (= S1_V2_!5257 S1_V2_!5251)) (or $x2271 (= S1_V2_!5257 S1_V2_!5266)) (or $x2731 (= S1_V2_!5257 S1_V2_!5272)) (or $x3631 (= S1_V2_!5266 S1_V2_!5272)) $x3777 $x1237 $x5871 (or $x1079 (= S1_V5_!5258 S1_V5_!5252)) (or $x2271 (= S1_V5_!5258 S1_V5_!5267)) (or (not $x2208) (= S1_V5_!5267 S1_V5_!5252)) (or $x4882 (= S1_V5_!5273 S1_V5_!5252)) (or $x1838 (= S1_V5_!5273 S1_V5_!5258)) (or $x5208 (= S1_V5_!5273 S1_V5_!5267)) (= E2_!5248 E2_!5247) (or (not (or (not R_E2_V1) $x3777)) (= E2_!5248 E2_!5262)) (or (not (or (not R_E2_V1) (= E1_!5261 E1_!5246))) (= E2_!5262 E2_!5247)) (or $x3483 (= S1_V4_!5253 S1_V4_!5259)) (or $x1634 (= S1_V4_!5253 S1_V4_!5268)) (or $x2271 (= S1_V4_!5259 S1_V4_!5268)) (or $x4882 (= S1_V4_!5274 S1_V4_!5253)) (or $x1838 (= S1_V4_!5274 S1_V4_!5259)) (or $x5208 $x3444) (or $x1634 (= S1_V6_!5254 S1_V6_!5269)) (or $x847 (= S1_V6_!5254 S1_V6_!5275)) (or $x1079 (= S1_V6_!5260 S1_V6_!5254)) (or $x2271 $x315) (or $x2731 $x570) (or $x3631 $x1500) (or (not MW_S1_V1) W_S1_V1) (or (not MW_S1_V3) W_S1_V3) (or (not MW_S1_V2) W_S1_V2) (or (not MW_S1_V4) W_S1_V4) (or (not MW_S1_V6) W_S1_V6))))
 (or (not $x680) (not $x864) $x2838)))))))))))))))))))))))))))))))))))))))))))))))))))))))))
 )
 )
 )
 )
 )
 )
 )
 )
 )
 )
 )
 )
 )
 )
 )
 )
 )
 )
 )
 )
 )
 )
 )
 )
 )
 )
 )
 )
 )
 )
 )
 )
 )
 )
 )
 )
 )
 )
 )
 ))
 (let (($x617 (and W_S1_V6 R_E1_V6)))
 (let (($x3206 (and W_S1_V4 R_E1_V4)))
 (let (($x1815 (and W_S1_V2 R_E1_V2)))
 (let (($x1831 (= DISJ_W_S1_R_E1 (not (or $x1815 R_E1_V5 $x3206 $x617)))))
 (let (($x4720 (and W_S1_V6 R_S1_V6)))
 (let (($x581 (and W_S1_V4 R_S1_V4)))
 (let (($x5944 (and W_S1_V2 R_S1_V2)))
 (let (($x2230 (and W_S1_V3 R_S1_V3)))
 (let (($x35 (and W_S1_V1 R_S1_V1)))
 (let (($x2369 (= DISJ_W_S1_R_S1 (not (or $x35 $x2230 $x5944 R_S1_V5 $x581 $x4720)))))
 (let (($x1586 (and W_S1_V6 R_E2_V6)))
 (let (($x1158 (and W_S1_V4 R_E2_V4)))
 (let (($x5767 (and W_S1_V2 R_E2_V2)))
 (let (($x3123 (and W_S1_V1 R_E2_V1)))
 (let (($x3098 (= DISJ_W_S1_R_E2 (not (or $x3123 $x5767 R_E2_V5 $x1158 $x1586)))))
 (let (($x5351 (not R_E1_V3)))
 (let (($x4983 (not R_E1_V1)))
 (let (($x43 (not R_E2_V3)))
 (and (and $x43 $x4983 $x5351 W_S1_V5 $x3098 $x2369 $x1831 $x5388) $x3140))))))))))))))))))))))
(check-sat)
